20170519 35 0 0 0
20160531 50 0 0 0
20150525 30 0 0 0
20140424 30 0 0 0
20130520 30 0 0 0
20120524 30 0 0 0
20110524 30 0 0 0
20100602 30 0 0 0
20090526 30 0 0 0
20080522 30 0 0 0
20071019 0 10000 0 0
20070522 50 0 0 0
20060630 50 0 0 0
20060626 0 3300 0 0
20050617 50 0 0 0
20040614 150 0 0 0
20030619 150 0 0 0
20020531 150 0 0 0
20010516 138 0 0 0
